c Nemesis formula in 6CNF in accordance with DIMACS CNF format:
c    Filename: MCNC/c432/c432.tdl
c    Formula number 39
c    1292 variables (range: 2 - 1293)
c    2790 clauses
c
c p cnf 1293 2790
p cnf 864 2790
100	0
-834	0
-834	0
863	0
100	0
-101	0
99	0
176	-178	0
-176	178	0
99	101	0
-99	-101	0
-106	-214	0
-270	-214	0
-261	-214	0
-281	-214	0
-106	-216	0
-270	-216	0
-261	-216	0
-281	-216	0
176	99	0
-176	-99	0
834	-178	0
-834	178	0
834	-101	0
-834	101	0
178	-101	0
-178	101	0
-835	38	0
-39	-837	0
37	-837	0
39	-838	0
-37	-838	0
-838	836	0
-837	836	0
553	37	0
-553	-37	0
-554	38	0
555	39	0
-555	-39	0
176	-553	0
-176	553	0
176	-556	0
-176	556	0
176	-569	0
-176	569	0
177	-554	0
177	-557	0
177	-570	0
178	-555	0
-178	555	0
178	-558	0
-178	558	0
178	-571	0
-178	571	0
214	176	0
-214	-176	0
-215	177	0
216	178	0
-216	-178	0
78	-199	0
-78	199	0
78	-202	0
-78	202	0
78	-214	0
-78	214	0
78	-226	0
-78	226	0
78	-233	0
-78	233	0
78	-263	0
-78	263	0
78	-267	0
-78	267	0
78	-272	0
-78	272	0
78	-283	0
-78	283	0
78	-383	0
-78	383	0
78	-437	0
-78	437	0
78	-465	0
-78	465	0
78	-512	0
-78	512	0
78	-524	0
-78	524	0
78	-612	0
-78	612	0
78	-638	0
-78	638	0
78	-660	0
-78	660	0
78	-687	0
-78	687	0
78	-693	0
-78	693	0
78	-718	0
-78	718	0
78	-758	0
-78	758	0
79	-200	0
79	-203	0
79	-215	0
79	-227	0
79	-234	0
79	-264	0
79	-268	0
79	-273	0
79	-284	0
79	-384	0
79	-438	0
79	-466	0
79	-513	0
79	-525	0
79	-613	0
79	-639	0
79	-661	0
79	-688	0
79	-694	0
79	-719	0
79	-759	0
80	-201	0
-80	201	0
80	-204	0
-80	204	0
80	-216	0
-80	216	0
80	-228	0
-80	228	0
80	-235	0
-80	235	0
80	-265	0
-80	265	0
80	-269	0
-80	269	0
80	-274	0
-80	274	0
80	-285	0
-80	285	0
80	-385	0
-80	385	0
80	-439	0
-80	439	0
80	-467	0
-80	467	0
80	-514	0
-80	514	0
80	-526	0
-80	526	0
80	-614	0
-80	614	0
80	-640	0
-80	640	0
80	-662	0
-80	662	0
80	-689	0
-80	689	0
80	-695	0
-80	695	0
80	-720	0
-80	720	0
80	-760	0
-80	760	0
99	78	0
551	78	0
390	78	0
396	78	0
101	80	0
551	80	0
390	80	0
396	80	0
408	396	0
-408	-396	0
232	-407	0
-232	407	0
232	-408	0
-232	408	0
-420	-232	0
-413	-232	0
-417	-232	0
400	-414	0
-400	414	0
400	-417	0
-400	417	0
400	-426	0
-400	426	0
400	-431	0
-400	431	0
34	400	0
-34	-400	0
12	-410	0
-12	410	0
12	-413	0
-12	413	0
409	-420	0
-409	420	0
409	-421	0
-409	421	0
-563	-824	0
419	-824	0
563	-825	0
-419	-825	0
-825	409	0
-824	409	0
57	-182	0
-57	182	0
57	-183	0
-57	183	0
57	-186	0
-57	186	0
57	-223	0
-57	223	0
57	-248	0
-57	248	0
57	-380	0
-57	380	0
57	-419	0
-57	419	0
57	-458	0
-57	458	0
57	-505	0
-57	505	0
57	-543	0
-57	543	0
57	-587	0
-57	587	0
57	-609	0
-57	609	0
57	-635	0
-57	635	0
57	-651	0
-57	651	0
57	-690	0
-57	690	0
57	-701	0
-57	701	0
57	-711	0
-57	711	0
57	-771	0
-57	771	0
57	-804	0
-57	804	0
582	57	0
559	57	0
58	57	0
574	57	0
699	574	0
-699	-574	0
575	-699	0
-575	699	0
575	-700	0
-575	700	0
-741	-575	0
-742	-575	0
577	-580	0
-577	580	0
577	-581	0
-577	581	0
577	-603	0
-577	603	0
577	-742	0
-577	742	0
26	577	0
-26	-577	0
7	-738	0
-7	738	0
7	-741	0
-7	741	0
-246	-58	0
-61	-58	0
56	-60	0
-56	60	0
56	-61	0
-56	61	0
-461	-56	0
-447	-56	0
432	-447	0
-432	447	0
432	-448	0
-432	448	0
450	432	0
-450	-432	0
32	-450	0
-32	450	0
32	-451	0
-32	451	0
32	-482	0
-32	482	0
5	-461	0
-5	461	0
5	-462	0
-5	462	0
59	-246	0
-59	246	0
59	-247	0
-59	247	0
-714	-59	0
-707	-59	0
702	-705	0
-702	705	0
702	-706	0
-702	706	0
702	-707	0
-702	707	0
702	-735	0
-702	735	0
9	702	0
-9	-702	0
21	-714	0
-21	714	0
21	-715	0
-21	715	0
-562	-559	0
-560	-559	0
-564	-559	0
418	-563	0
-418	563	0
418	-564	0
-418	564	0
-430	-418	0
-431	-418	0
25	-427	0
-25	427	0
25	-430	0
-25	430	0
663	560	0
652	560	0
664	560	0
802	664	0
-802	-664	0
783	-802	0
-783	802	0
783	-803	0
-783	803	0
-800	-783	0
-801	-783	0
784	-793	0
-784	793	0
784	-796	0
-784	796	0
784	-801	0
-784	801	0
784	-811	0
-784	811	0
19	784	0
-19	-784	0
17	-797	0
-17	797	0
17	-800	0
-17	800	0
654	652	0
-654	-652	0
650	-653	0
-650	653	0
650	-654	0
-650	654	0
-781	-650	0
-782	-650	0
497	-774	0
-497	774	0
497	-775	0
-497	775	0
497	-782	0
-497	782	0
767	497	0
-767	-497	0
35	-766	0
-35	766	0
35	-767	0
-35	767	0
30	-778	0
-30	778	0
30	-781	0
-30	781	0
666	663	0
-666	-663	0
185	-665	0
-185	665	0
185	-666	0
-185	666	0
-648	-185	0
-649	-185	0
188	-197	0
-188	197	0
188	-198	0
-188	198	0
188	-368	0
-188	368	0
188	-649	0
-188	649	0
28	188	0
-28	-188	0
4	-645	0
-4	645	0
4	-648	0
-4	648	0
499	-561	0
-499	561	0
499	-562	0
-499	562	0
-508	-499	0
-501	-499	0
494	-500	0
-494	500	0
494	-501	0
-494	501	0
531	494	0
-531	-494	0
6	-531	0
-6	531	0
6	-532	0
-6	532	0
6	-542	0
-6	542	0
10	-508	0
-10	508	0
10	-509	0
-10	509	0
585	582	0
-585	-582	0
583	-585	0
-583	585	0
583	-586	0
-583	586	0
-746	-583	0
-747	-583	0
588	-591	0
-588	591	0
588	-592	0
-588	592	0
588	-629	0
-588	629	0
588	-747	0
-588	747	0
27	588	0
-27	-588	0
11	-743	0
-11	743	0
11	-746	0
-11	746	0
-394	-390	0
-658	-390	0
-572	-390	0
392	-572	0
-392	572	0
392	-573	0
-392	573	0
392	-686	0
-392	686	0
-805	-392	0
-792	-392	0
-796	-392	0
18	-789	0
-18	789	0
18	-792	0
-18	792	0
788	-805	0
-788	805	0
788	-806	0
-788	806	0
-803	-812	0
804	-812	0
803	-813	0
-804	-813	0
-813	788	0
-812	788	0
391	-658	0
-391	658	0
391	-659	0
-391	659	0
-673	-391	0
-754	-391	0
-774	-391	0
22	-754	0
-22	754	0
22	-755	0
-22	755	0
496	-673	0
-496	673	0
496	-674	0
-496	674	0
-653	-818	0
651	-818	0
653	-819	0
-651	-819	0
-819	496	0
-818	496	0
187	-393	0
-187	393	0
187	-394	0
-187	394	0
-195	-187	0
-386	-187	0
-197	-187	0
23	-386	0
-23	386	0
23	-387	0
-23	387	0
184	-195	0
-184	195	0
184	-196	0
-184	196	0
-665	-830	0
186	-830	0
665	-831	0
-186	-831	0
-831	184	0
-830	184	0
395	-551	0
-395	551	0
395	-552	0
-395	552	0
522	395	0
-522	-395	0
495	-522	0
-495	522	0
495	-523	0
-495	523	0
-547	-495	0
-515	-495	0
-500	-495	0
33	-515	0
-33	515	0
33	-516	0
-33	516	0
498	-547	0
-498	547	0
498	-548	0
-498	548	0
-561	-822	0
543	-822	0
561	-823	0
-543	-823	0
-823	498	0
-822	498	0
-106	-99	0
-270	-99	0
-261	-99	0
-281	-99	0
104	-281	0
-104	281	0
104	-282	0
-104	282	0
104	-436	0
-104	436	0
-446	-104	0
-468	-104	0
-448	-104	0
29	-468	0
-29	468	0
29	-469	0
-29	469	0
55	-443	0
-55	443	0
55	-446	0
-55	446	0
-60	-832	0
182	-832	0
60	-833	0
-182	-833	0
-833	55	0
-832	55	0
103	-261	0
-103	261	0
103	-262	0
-103	262	0
103	-266	0
-103	266	0
-579	-103	0
-615	-103	0
-581	-103	0
31	-615	0
-31	615	0
31	-616	0
-31	616	0
576	-578	0
-576	578	0
576	-579	0
-576	579	0
-700	-814	0
701	-814	0
700	-815	0
-701	-815	0
-815	576	0
-814	576	0
102	-270	0
-102	270	0
102	-271	0
-102	271	0
-703	-102	0
-721	-102	0
-705	-102	0
20	-721	0
-20	721	0
20	-722	0
-20	722	0
245	-703	0
-245	703	0
245	-704	0
-245	704	0
-247	-826	0
248	-826	0
247	-827	0
-248	-827	0
-827	245	0
-826	245	0
77	-105	0
-77	105	0
77	-106	0
-77	106	0
-589	-77	0
-641	-77	0
-591	-77	0
15	-641	0
-15	641	0
15	-642	0
-15	642	0
584	-589	0
-584	589	0
584	-590	0
-584	590	0
-586	-820	0
587	-820	0
586	-821	0
-587	-821	0
-821	584	0
-820	584	0
-42	-844	0
40	-844	0
42	-845	0
-40	-845	0
-845	843	0
-844	843	0
472	40	0
-472	-40	0
-473	41	0
474	42	0
-474	-42	0
211	-472	0
-211	472	0
211	-475	0
-211	475	0
211	-528	0
-211	528	0
212	-473	0
212	-476	0
212	-529	0
213	-474	0
-213	474	0
213	-477	0
-213	477	0
213	-530	0
-213	530	0
491	211	0
-491	-211	0
-492	212	0
493	213	0
-493	-213	0
93	-401	0
-93	401	0
93	-404	0
-93	404	0
93	-491	0
-93	491	0
93	-596	0
-93	596	0
93	-622	0
-93	622	0
93	-728	0
-93	728	0
93	-751	0
-93	751	0
93	-785	0
-93	785	0
94	-402	0
94	-405	0
94	-492	0
94	-597	0
94	-623	0
94	-729	0
94	-752	0
94	-786	0
95	-403	0
-95	403	0
95	-406	0
-95	406	0
95	-493	0
-95	493	0
95	-598	0
-95	598	0
95	-624	0
-95	624	0
95	-730	0
-95	730	0
95	-753	0
-95	753	0
95	-787	0
-95	787	0
68	93	0
96	93	0
81	93	0
-69	94	0
-97	94	0
-82	94	0
70	95	0
98	95	0
83	95	0
-90	-81	0
-85	82	0
-91	82	0
-85	87	0
-92	-83	0
-443	-90	0
-440	-90	0
-434	91	0
-276	91	0
-441	-443	0
-444	-440	0
-276	-440	0
-434	-440	0
-276	-443	0
-434	-443	0
-443	-92	0
-440	-92	0
478	440	0
451	440	0
449	-478	0
-449	478	0
449	-479	0
-449	479	0
14	449	0
-14	-449	0
278	275	0
-278	-275	0
-279	276	0
280	277	0
-280	-277	0
-282	-278	0
-283	-278	0
-284	279	0
-284	-282	0
-282	-280	0
-285	-280	0
436	433	0
437	433	0
-438	434	0
-438	436	0
436	435	0
439	435	0
-704	-87	0
-731	-87	0
-706	-87	0
8	-731	0
-8	731	0
8	-732	0
-8	732	0
-273	85	0
-205	-96	0
-189	-96	0
-208	-96	0
-206	97	0
-190	97	0
-209	97	0
-207	-98	0
-191	-98	0
-210	-98	0
670	208	0
-656	209	0
-671	209	0
-668	-674	0
-675	-667	0
-656	-667	0
-656	-674	0
672	210	0
696	670	0
-566	671	0
-684	671	0
-684	696	0
-566	696	0
696	672	0
-806	-696	0
-810	-696	0
-811	-696	0
3	-807	0
-3	807	0
3	-810	0
-3	810	0
-686	-683	0
-687	-683	0
-688	684	0
-688	-686	0
-686	-685	0
-689	-685	0
-568	-565	0
-569	-565	0
-570	566	0
-570	-568	0
-568	-567	0
-571	-567	0
573	568	0
-573	-568	0
761	667	0
766	667	0
765	761	0
-765	-761	0
1	-762	0
-1	762	0
1	-765	0
-1	765	0
-659	-816	0
660	-816	0
659	-817	0
-660	-817	0
-817	655	0
-816	655	0
-661	656	0
-659	-847	0
662	-847	0
659	-848	0
-662	-848	0
-848	657	0
-847	657	0
-192	-189	0
-196	-189	0
-364	-189	0
-198	-189	0
-193	190	0
-193	-198	0
-193	-364	0
-193	-196	0
-194	-191	0
-196	-191	0
-364	-191	0
-198	-191	0
16	-364	0
-16	364	0
16	-365	0
-16	365	0
-393	-828	0
202	-828	0
393	-829	0
-202	-829	0
-829	192	0
-828	192	0
-203	193	0
-393	-849	0
204	-849	0
393	-850	0
-204	-850	0
-850	194	0
-849	194	0
236	205	0
-236	-205	0
-237	206	0
238	207	0
-238	-207	0
-242	-236	0
-230	237	0
-243	237	0
-230	239	0
-244	-238	0
-548	-242	0
-535	-242	0
-520	243	0
-545	243	0
-536	-548	0
-549	-535	0
-545	-535	0
-520	-535	0
-545	-548	0
-520	-548	0
-548	-244	0
-535	-244	0
541	535	0
542	535	0
527	-538	0
-527	538	0
527	-541	0
-527	541	0
13	527	0
-13	-527	0
552	544	0
556	544	0
-557	545	0
-557	552	0
552	546	0
558	546	0
523	519	0
524	519	0
-525	520	0
-525	523	0
523	521	0
526	521	0
-421	-239	0
-425	-239	0
-426	-239	0
36	-422	0
-36	422	0
36	-425	0
-36	425	0
-234	230	0
-62	-68	0
-72	69	0
-63	69	0
-72	74	0
-64	-70	0
65	62	0
-65	-62	0
-66	63	0
67	64	0
-67	-64	0
255	65	0
-250	66	0
-253	66	0
-253	255	0
-250	255	0
255	67	0
-578	-255	0
-599	-255	0
-580	-255	0
24	-599	0
-24	599	0
24	-600	0
-24	600	0
-266	-252	0
-267	-252	0
-268	253	0
-268	-266	0
-266	-254	0
-269	-254	0
258	249	0
-258	-249	0
-259	250	0
260	251	0
-260	-251	0
262	258	0
263	258	0
-264	259	0
-264	262	0
262	260	0
265	260	0
-590	-74	0
-625	-74	0
-592	-74	0
2	-625	0
-2	625	0
2	-626	0
-2	626	0
-200	72	0
-45	-852	0
43	-852	0
45	-853	0
-43	-853	0
-853	851	0
-852	851	0
298	43	0
146	43	0
128	43	0
134	43	0
-299	44	0
-147	44	0
-129	44	0
-135	44	0
300	45	0
148	45	0
130	45	0
136	45	0
107	-131	0
-107	131	0
107	-134	0
-107	134	0
107	-152	0
-107	152	0
108	-132	0
108	-135	0
108	-153	0
109	-133	0
-109	133	0
109	-136	0
-109	136	0
109	-154	0
-109	154	0
173	107	0
-173	-107	0
-174	108	0
175	109	0
-175	-109	0
158	-170	0
-158	170	0
158	-173	0
-158	173	0
159	-171	0
159	-174	0
160	-172	0
-160	172	0
160	-175	0
-160	175	0
-677	-158	0
-694	159	0
-678	159	0
-694	789	0
-798	690	0
-691	797	0
-679	-160	0
680	677	0
-680	-677	0
-681	678	0
682	679	0
-682	-679	0
-793	-680	0
-786	681	0
-786	807	0
-808	-793	0
-786	-793	0
-793	-682	0
116	-125	0
-116	125	0
116	-128	0
-116	128	0
116	-295	0
-116	295	0
116	-343	0
-116	343	0
117	-126	0
117	-129	0
117	-296	0
117	-344	0
118	-127	0
-118	127	0
118	-130	0
-118	130	0
118	-297	0
-118	297	0
118	-345	0
-118	345	0
340	116	0
-340	-116	0
-341	117	0
342	118	0
-342	-118	0
167	-319	0
-167	319	0
167	-322	0
-167	322	0
167	-340	0
-167	340	0
168	-320	0
168	-323	0
168	-341	0
169	-321	0
-169	321	0
169	-324	0
-169	324	0
169	-342	0
-169	342	0
-629	-167	0
-619	-167	0
-623	168	0
-620	168	0
-620	-629	0
-623	626	0
-627	-629	0
-623	-629	0
-629	-169	0
-621	-169	0
632	619	0
-632	-619	0
-633	620	0
634	621	0
-634	-621	0
-639	633	0
-639	642	0
-744	635	0
-636	743	0
122	-146	0
-122	146	0
122	-149	0
-122	149	0
123	-147	0
123	-150	0
124	-148	0
-124	148	0
124	-151	0
-124	151	0
316	122	0
-316	-122	0
-317	123	0
318	124	0
-318	-124	0
-322	-316	0
-325	-316	0
-323	317	0
-326	317	0
-324	-318	0
-327	-318	0
292	-310	0
-292	310	0
292	-313	0
-292	313	0
292	-325	0
-292	325	0
292	-346	0
-292	346	0
292	-485	0
-292	485	0
293	-311	0
293	-314	0
293	-326	0
293	-347	0
293	-486	0
294	-312	0
-294	312	0
294	-315	0
-294	315	0
294	-327	0
-294	327	0
294	-348	0
-294	348	0
294	-487	0
-294	487	0
606	292	0
593	292	0
-607	293	0
-594	293	0
608	294	0
595	294	0
-603	-593	0
-597	594	0
-597	600	0
-601	-603	0
-597	-603	0
-603	-595	0
-613	607	0
-613	616	0
-739	609	0
-610	738	0
119	-298	0
-119	298	0
119	-301	0
-119	301	0
119	-307	0
-119	307	0
119	-488	0
-119	488	0
120	-299	0
120	-302	0
120	-308	0
120	-489	0
121	-300	0
-121	300	0
121	-303	0
-121	303	0
121	-309	0
-121	309	0
121	-490	0
-121	490	0
452	119	0
-452	-119	0
-453	120	0
454	121	0
-454	-121	0
-708	-452	0
-719	453	0
-709	453	0
-719	722	0
-716	711	0
-712	715	0
-710	-454	0
725	708	0
-725	-708	0
-726	709	0
727	710	0
-727	-710	0
-735	-725	0
-729	726	0
-729	732	0
-733	-735	0
-729	-735	0
-735	-727	0
-51	-855	0
49	-855	0
51	-856	0
-49	-856	0
-856	854	0
-855	854	0
143	49	0
149	49	0
137	49	0
152	49	0
-144	50	0
-150	50	0
-138	50	0
-153	50	0
145	51	0
151	51	0
139	51	0
154	51	0
343	137	0
374	137	0
346	137	0
352	137	0
-344	138	0
-375	138	0
-347	138	0
-353	138	0
345	139	0
376	139	0
348	139	0
354	139	0
331	-349	0
-331	349	0
331	-352	0
-331	352	0
332	-350	0
332	-353	0
333	-351	0
-333	351	0
333	-354	0
-333	354	0
358	331	0
-358	-331	0
-359	332	0
360	333	0
-360	-333	0
304	-355	0
-304	355	0
304	-358	0
-304	358	0
305	-356	0
305	-359	0
306	-357	0
-306	357	0
306	-360	0
-306	360	0
-502	-304	0
-513	305	0
-503	305	0
-513	516	0
-510	505	0
-506	509	0
-504	-306	0
532	502	0
-529	503	0
-529	-538	0
-539	532	0
-529	532	0
532	504	0
217	-374	0
-217	374	0
217	-377	0
-217	377	0
218	-375	0
218	-378	0
219	-376	0
-219	376	0
219	-379	0
-219	379	0
-220	-217	0
-227	218	0
-221	218	0
-227	410	0
-428	223	0
-224	427	0
-222	-219	0
397	220	0
-397	-220	0
-398	221	0
399	222	0
-399	-222	0
-414	-397	0
-405	398	0
-405	422	0
-423	-414	0
-405	-414	0
-414	-399	0
110	-140	0
-110	140	0
110	-143	0
-110	143	0
111	-141	0
111	-144	0
112	-142	0
-112	142	0
112	-145	0
-112	145	0
295	110	0
301	110	0
310	110	0
286	110	0
-296	111	0
-302	111	0
-311	111	0
-287	111	0
297	112	0
303	112	0
312	112	0
288	112	0
334	286	0
-334	-286	0
-335	287	0
336	288	0
-336	-288	0
289	-334	0
-289	334	0
289	-337	0
-289	337	0
290	-335	0
290	-338	0
291	-336	0
-291	336	0
291	-339	0
-291	339	0
482	289	0
455	289	0
-476	290	0
-456	290	0
-456	482	0
-476	-479	0
-480	482	0
-476	482	0
482	291	0
457	291	0
-466	456	0
-466	469	0
-463	458	0
-459	462	0
-48	-858	0
46	-858	0
48	-859	0
-46	-859	0
-859	857	0
-858	857	0
131	46	0
140	46	0
113	46	0
125	46	0
-132	47	0
-141	47	0
-114	47	0
-126	47	0
133	48	0
142	48	0
115	48	0
127	48	0
307	113	0
355	113	0
313	113	0
-308	114	0
-356	114	0
-314	114	0
309	115	0
357	115	0
315	115	0
-54	-861	0
52	-861	0
54	-862	0
-52	-862	0
-862	860	0
-861	860	0
-179	-52	0
-155	-52	0
-180	53	0
-156	53	0
-181	-54	0
-157	-54	0
-170	-155	0
-161	-155	0
-164	-155	0
-319	-155	0
-171	156	0
-162	156	0
-165	156	0
-320	156	0
-172	-157	0
-163	-157	0
-166	-157	0
-321	-157	0
485	164	0
488	164	0
-486	165	0
-489	165	0
487	166	0
490	166	0
337	161	0
328	161	0
349	161	0
-338	162	0
-329	162	0
-350	162	0
339	163	0
330	163	0
351	163	0
-377	-328	0
-372	329	0
-362	329	0
-378	329	0
-379	-330	0
-368	-361	0
-402	362	0
-402	365	0
-366	-368	0
-402	-368	0
-368	-363	0
-384	372	0
-384	387	0
-646	380	0
-381	645	0
-768	-179	0
-775	-179	0
-769	180	0
-769	-775	0
-772	778	0
-779	771	0
-772	-775	0
-779	-775	0
-770	-181	0
-775	-181	0
748	768	0
-748	-768	0
-749	769	0
750	770	0
-750	-770	0
-752	749	0
-759	749	0
-759	755	0
-752	762	0
-860	863	0
-857	863	0
-854	863	0
-851	863	0
-843	863	0
-836	863	0
837	39	-37	0
838	-39	37	0
-836	838	837	0
-38	37	39	0
-38	-37	-39	0
-570	569	571	0
-570	-569	-571	0
-557	556	558	0
-557	-556	-558	0
-554	553	555	0
-554	-553	-555	0
-177	176	178	0
-177	-176	-178	0
-759	758	760	0
-759	-758	-760	0
-719	718	720	0
-719	-718	-720	0
-694	693	695	0
-694	-693	-695	0
-688	687	689	0
-688	-687	-689	0
-661	660	662	0
-661	-660	-662	0
-639	638	640	0
-639	-638	-640	0
-613	612	614	0
-613	-612	-614	0
-525	524	526	0
-525	-524	-526	0
-513	512	514	0
-513	-512	-514	0
-466	465	467	0
-466	-465	-467	0
-438	437	439	0
-438	-437	-439	0
-384	383	385	0
-384	-383	-385	0
-284	283	285	0
-284	-283	-285	0
-273	272	274	0
-273	-272	-274	0
-268	267	269	0
-268	-267	-269	0
-264	263	265	0
-264	-263	-265	0
-234	233	235	0
-234	-233	-235	0
-227	226	228	0
-227	-226	-228	0
-215	214	216	0
-215	-214	-216	0
-203	202	204	0
-203	-202	-204	0
-200	199	201	0
-200	-199	-201	0
-79	78	80	0
-79	-78	-80	0
824	563	-419	0
825	-563	419	0
-409	825	824	0
575	741	742	0
58	246	61	0
56	461	447	0
59	714	707	0
418	430	431	0
783	800	801	0
650	781	782	0
185	648	649	0
499	508	501	0
583	746	747	0
812	803	-804	0
813	-803	804	0
-788	813	812	0
818	653	-651	0
819	-653	651	0
-496	819	818	0
830	665	-186	0
831	-665	186	0
-184	831	830	0
822	561	-543	0
823	-561	543	0
-498	823	822	0
832	60	-182	0
833	-60	182	0
-55	833	832	0
814	700	-701	0
815	-700	701	0
-576	815	814	0
826	247	-248	0
827	-247	248	0
-245	827	826	0
820	586	-587	0
821	-586	587	0
-584	821	820	0
844	42	-40	0
845	-42	40	0
-843	845	844	0
-41	40	42	0
-41	-40	-42	0
-529	528	530	0
-529	-528	-530	0
-476	475	477	0
-476	-475	-477	0
-473	472	474	0
-473	-472	-474	0
-212	211	213	0
-212	-211	-213	0
-786	785	787	0
-786	-785	-787	0
-752	751	753	0
-752	-751	-753	0
-729	728	730	0
-729	-728	-730	0
-623	622	624	0
-623	-622	-624	0
-597	596	598	0
-597	-596	-598	0
-492	491	493	0
-492	-491	-493	0
-405	404	406	0
-405	-404	-406	0
-402	401	403	0
-402	-401	-403	0
-82	-83	98	0
-82	-81	96	0
-82	96	98	0
-82	-83	70	0
-82	-81	68	0
-82	68	70	0
-97	-98	83	0
-97	-96	81	0
-97	81	83	0
-97	-98	70	0
-97	-96	68	0
-97	68	70	0
-69	-70	83	0
-69	-68	81	0
-69	81	83	0
-69	-70	98	0
-69	-68	96	0
-69	96	98	0
-94	93	95	0
-94	-93	-95	0
-87	-84	-81	0
90	84	81	0
90	87	81	0
-88	-89	86	0
-88	-87	84	0
-88	84	86	0
-88	-89	-90	0
-88	-87	-92	0
-88	-90	-92	0
-85	-86	-90	0
-85	-84	-92	0
-85	-90	-92	0
-82	81	83	0
-82	-81	-83	0
-87	-86	-83	0
92	86	83	0
92	87	83	0
-275	-433	-90	0
-276	-277	435	0
-276	-275	433	0
-276	433	435	0
-434	-435	277	0
-434	-433	275	0
-434	275	277	0
-91	90	92	0
-91	-90	-92	0
-277	-435	-92	0
-440	-478	-451	0
-276	275	277	0
-276	-275	-277	0
278	282	283	0
-279	278	280	0
-279	-278	-280	0
280	282	285	0
-433	-436	-437	0
-434	433	435	0
-434	-433	-435	0
-435	-436	-439	0
272	271	84	0
-272	-271	84	0
-272	271	-84	0
272	-271	-84	0
-85	84	86	0
-85	-84	-86	0
274	271	86	0
-274	-271	86	0
-274	271	-86	0
274	-271	-86	0
-209	-210	-189	0
-209	-208	-191	0
-209	-189	-191	0
-209	-210	-205	0
-209	-208	-207	0
-209	-205	-207	0
-190	-191	-208	0
-190	-189	-210	0
-190	-208	-210	0
-190	-191	-205	0
-190	-189	-207	0
-190	-205	-207	0
-206	-207	-208	0
-206	-205	-210	0
-206	-208	-210	0
-206	-207	-189	0
-206	-205	-191	0
-206	-189	-191	0
-97	96	98	0
-97	-96	-98	0
-670	-655	-208	0
-670	-674	-208	0
-670	-667	-208	0
-668	-669	-655	0
-668	-667	-657	0
-668	-655	-657	0
-675	-676	-655	0
-675	-674	-657	0
-675	-655	-657	0
-668	-669	672	0
-668	-667	670	0
-668	670	672	0
-675	-676	672	0
-675	-674	670	0
-675	670	672	0
-656	-657	672	0
-656	-655	670	0
-656	670	672	0
-209	208	210	0
-209	-208	-210	0
-672	-657	-210	0
-672	-674	-210	0
-672	-667	-210	0
683	565	670	0
-696	-565	-670	0
-696	-683	-670	0
-684	-685	-565	0
-684	-683	-567	0
-684	-565	-567	0
-566	-567	-683	0
-566	-565	-685	0
-566	-683	-685	0
-671	670	672	0
-671	-670	-672	0
685	567	672	0
-696	-567	-672	0
-696	-685	-672	0
683	686	687	0
-684	683	685	0
-684	-683	-685	0
685	686	689	0
565	568	569	0
-566	565	567	0
-566	-565	-567	0
567	568	571	0
-667	-761	-766	0
816	659	-660	0
817	-659	660	0
-655	817	816	0
-656	655	657	0
-656	-655	-657	0
847	659	-662	0
848	-659	662	0
-657	848	847	0
-190	189	191	0
-190	-189	-191	0
828	393	-202	0
829	-393	202	0
-192	829	828	0
-193	192	194	0
-193	-192	-194	0
849	393	-204	0
850	-393	204	0
-194	850	849	0
-206	205	207	0
-206	-205	-207	0
-239	-229	-236	0
242	229	236	0
242	239	236	0
-240	-241	231	0
-240	-239	229	0
-240	229	231	0
-240	-241	-242	0
-240	-239	-244	0
-240	-242	-244	0
-230	-231	-242	0
-230	-229	-244	0
-230	-242	-244	0
-237	236	238	0
-237	-236	-238	0
-239	-231	-238	0
244	231	238	0
244	239	238	0
-544	-519	-242	0
-545	-546	521	0
-545	-544	519	0
-545	519	521	0
-520	-521	546	0
-520	-519	544	0
-520	544	546	0
-243	242	244	0
-243	-242	-244	0
-546	-521	-244	0
-535	-541	-542	0
-544	-552	-556	0
-545	544	546	0
-545	-544	-546	0
-546	-552	-558	0
-519	-523	-524	0
-520	519	521	0
-520	-519	-521	0
-521	-523	-526	0
233	407	229	0
-233	-407	229	0
-233	407	-229	0
233	-407	-229	0
-230	229	231	0
-230	-229	-231	0
235	407	231	0
-235	-407	231	0
-235	407	-231	0
235	-407	-231	0
-74	-71	-68	0
62	71	68	0
62	74	68	0
-75	-76	73	0
-75	-74	71	0
-75	71	73	0
-75	-76	-62	0
-75	-74	-64	0
-75	-62	-64	0
-72	-73	-62	0
-72	-71	-64	0
-72	-62	-64	0
-69	68	70	0
-69	-68	-70	0
-74	-73	-70	0
64	73	70	0
64	74	70	0
-63	62	64	0
-63	-62	-64	0
252	249	65	0
-255	-249	-65	0
-255	-252	-65	0
-253	-254	-249	0
-253	-252	-251	0
-253	-249	-251	0
-250	-251	-252	0
-250	-249	-254	0
-250	-252	-254	0
-66	65	67	0
-66	-65	-67	0
254	251	67	0
-255	-251	-67	0
-255	-254	-67	0
252	266	267	0
-253	252	254	0
-253	-252	-254	0
254	266	269	0
-250	249	251	0
-250	-249	-251	0
-258	-262	-263	0
-259	258	260	0
-259	-258	-260	0
-260	-262	-265	0
199	105	71	0
-199	-105	71	0
-199	105	-71	0
199	-105	-71	0
-72	71	73	0
-72	-71	-73	0
201	105	73	0
-201	-105	73	0
-201	105	-73	0
201	-105	-73	0
852	45	-43	0
853	-45	43	0
-851	853	852	0
-135	-136	130	0
-135	-134	128	0
-135	128	130	0
-135	-136	148	0
-135	-134	146	0
-135	146	148	0
-135	-136	300	0
-135	-134	298	0
-135	298	300	0
-129	-130	136	0
-129	-128	134	0
-129	134	136	0
-129	-130	148	0
-129	-128	146	0
-129	146	148	0
-129	-130	300	0
-129	-128	298	0
-129	298	300	0
-147	-148	136	0
-147	-146	134	0
-147	134	136	0
-147	-148	130	0
-147	-146	128	0
-147	128	130	0
-147	-148	300	0
-147	-146	298	0
-147	298	300	0
-299	-300	136	0
-299	-298	134	0
-299	134	136	0
-299	-300	130	0
-299	-298	128	0
-299	128	130	0
-299	-300	148	0
-299	-298	146	0
-299	146	148	0
-44	43	45	0
-44	-43	-45	0
-153	152	154	0
-153	-152	-154	0
-135	134	136	0
-135	-134	-136	0
-132	131	133	0
-132	-131	-133	0
-108	107	109	0
-108	-107	-109	0
-159	171	174	0
-174	173	175	0
-174	-173	-175	0
-171	170	172	0
-171	-170	-172	0
-797	-690	-158	0
-789	-693	-158	0
-790	-791	695	0
-790	-789	693	0
-790	693	695	0
-790	-791	-677	0
-790	-789	-679	0
-790	-677	-679	0
-694	-695	-677	0
-694	-693	-679	0
-694	-677	-679	0
-798	-799	-677	0
-798	-797	-679	0
-798	-677	-679	0
-691	-692	-677	0
-691	-690	-679	0
-691	-677	-679	0
-678	-797	-690	0
-790	-797	-690	0
-694	-797	-690	0
-159	158	160	0
-159	-158	-160	0
-797	-690	-160	0
-789	-695	-160	0
-678	677	679	0
-678	-677	-679	0
-807	-785	-680	0
793	785	680	0
793	807	680	0
-808	-809	787	0
-808	-807	785	0
-808	785	787	0
-681	680	682	0
-681	-680	-682	0
-807	-787	-682	0
793	787	682	0
793	807	682	0
-344	343	345	0
-344	-343	-345	0
-296	295	297	0
-296	-295	-297	0
-129	128	130	0
-129	-128	-130	0
-126	125	127	0
-126	-125	-127	0
-117	116	118	0
-117	-116	-118	0
-341	340	342	0
-341	-340	-342	0
-323	322	324	0
-323	-322	-324	0
-320	319	321	0
-320	-319	-321	0
-626	-622	-167	0
-630	-631	-619	0
-630	-629	-621	0
-630	-619	-621	0
-627	-628	624	0
-627	-626	622	0
-627	622	624	0
-627	-628	-619	0
-627	-626	-621	0
-627	-619	-621	0
-623	-624	-619	0
-623	-622	-621	0
-623	-619	-621	0
-168	167	169	0
-168	-167	-169	0
-626	-624	-169	0
-620	619	621	0
-620	-619	-621	0
-743	-635	-632	0
-642	-638	-632	0
638	635	632	0
642	635	632	0
638	743	632	0
642	743	632	0
-643	-644	640	0
-643	-642	638	0
-643	638	640	0
-643	-743	-635	0
-639	-743	-635	0
-633	632	634	0
-633	-632	-634	0
-743	-635	-634	0
-642	-640	-634	0
640	635	634	0
642	635	634	0
640	743	634	0
642	743	634	0
-123	147	150	0
-150	149	151	0
-150	-149	-151	0
-147	146	148	0
-147	-146	-148	0
-123	122	124	0
-123	-122	-124	0
316	322	325	0
-326	-327	-322	0
-326	-325	-324	0
-326	-322	-324	0
-323	-324	-325	0
-323	-322	-327	0
-323	-325	-327	0
-317	316	318	0
-317	-316	-318	0
318	324	327	0
-486	485	487	0
-486	-485	-487	0
-347	346	348	0
-347	-346	-348	0
-326	325	327	0
-326	-325	-327	0
-314	313	315	0
-314	-313	-315	0
-311	310	312	0
-311	-310	-312	0
-292	-606	-593	0
-594	-595	608	0
-594	-593	606	0
-594	606	608	0
-607	-608	595	0
-607	-606	593	0
-607	593	595	0
-293	292	294	0
-293	-292	-294	0
-294	-608	-595	0
-600	-596	-593	0
603	596	593	0
603	600	593	0
-601	-602	598	0
-601	-600	596	0
-601	596	598	0
-594	593	595	0
-594	-593	-595	0
-600	-598	-595	0
603	598	595	0
603	600	595	0
-738	-609	-606	0
-616	-612	-606	0
612	609	606	0
616	609	606	0
612	738	606	0
616	738	606	0
-617	-618	614	0
-617	-616	612	0
-617	612	614	0
-617	-738	-609	0
-613	-738	-609	0
-607	606	608	0
-607	-606	-608	0
-738	-609	-608	0
-616	-614	-608	0
614	609	608	0
616	609	608	0
614	738	608	0
616	738	608	0
-489	488	490	0
-489	-488	-490	0
-308	307	309	0
-308	-307	-309	0
-302	301	303	0
-302	-301	-303	0
-299	298	300	0
-299	-298	-300	0
-120	119	121	0
-120	-119	-121	0
-715	-711	-452	0
-722	-718	-452	0
-723	-724	720	0
-723	-722	718	0
-723	718	720	0
-723	-724	-708	0
-723	-722	-710	0
-723	-708	-710	0
-719	-720	-708	0
-719	-718	-710	0
-719	-708	-710	0
-716	-717	-708	0
-716	-715	-710	0
-716	-708	-710	0
-712	-713	-708	0
-712	-711	-710	0
-712	-708	-710	0
-709	-715	-711	0
-723	-715	-711	0
-719	-715	-711	0
-453	452	454	0
-453	-452	-454	0
-715	-711	-454	0
-722	-720	-454	0
-709	708	710	0
-709	-708	-710	0
-732	-728	-725	0
735	728	725	0
735	732	725	0
-733	-734	730	0
-733	-732	728	0
-733	728	730	0
-726	725	727	0
-726	-725	-727	0
-732	-730	-727	0
735	730	727	0
735	732	727	0
855	51	-49	0
856	-51	49	0
-854	856	855	0
-153	-154	139	0
-153	-152	137	0
-153	137	139	0
-153	-154	151	0
-153	-152	149	0
-153	149	151	0
-153	-154	145	0
-153	-152	143	0
-153	143	145	0
-138	-139	154	0
-138	-137	152	0
-138	152	154	0
-138	-139	151	0
-138	-137	149	0
-138	149	151	0
-138	-139	145	0
-138	-137	143	0
-138	143	145	0
-150	-151	154	0
-150	-149	152	0
-150	152	154	0
-150	-151	139	0
-150	-149	137	0
-150	137	139	0
-150	-151	145	0
-150	-149	143	0
-150	143	145	0
-144	-145	154	0
-144	-143	152	0
-144	152	154	0
-144	-145	139	0
-144	-143	137	0
-144	137	139	0
-144	-145	151	0
-144	-143	149	0
-144	149	151	0
-50	49	51	0
-50	-49	-51	0
-353	-354	348	0
-353	-352	346	0
-353	346	348	0
-353	-354	376	0
-353	-352	374	0
-353	374	376	0
-353	-354	345	0
-353	-352	343	0
-353	343	345	0
-347	-348	354	0
-347	-346	352	0
-347	352	354	0
-347	-348	376	0
-347	-346	374	0
-347	374	376	0
-347	-348	345	0
-347	-346	343	0
-347	343	345	0
-375	-376	354	0
-375	-374	352	0
-375	352	354	0
-375	-376	348	0
-375	-374	346	0
-375	346	348	0
-375	-376	345	0
-375	-374	343	0
-375	343	345	0
-344	-345	354	0
-344	-343	352	0
-344	352	354	0
-344	-345	348	0
-344	-343	346	0
-344	346	348	0
-344	-345	376	0
-344	-343	374	0
-344	374	376	0
-138	137	139	0
-138	-137	-139	0
-332	350	353	0
-353	352	354	0
-353	-352	-354	0
-350	349	351	0
-350	-349	-351	0
-332	331	333	0
-332	-331	-333	0
-305	356	359	0
-359	358	360	0
-359	-358	-360	0
-356	355	357	0
-356	-355	-357	0
-509	-505	-304	0
-516	-512	-304	0
-517	-518	514	0
-517	-516	512	0
-517	512	514	0
-517	-518	-502	0
-517	-516	-504	0
-517	-502	-504	0
-513	-514	-502	0
-513	-512	-504	0
-513	-502	-504	0
-510	-511	-502	0
-510	-509	-504	0
-510	-502	-504	0
-506	-507	-502	0
-506	-505	-504	0
-506	-502	-504	0
-503	-509	-505	0
-517	-509	-505	0
-513	-509	-505	0
-305	304	306	0
-305	-304	-306	0
-509	-505	-306	0
-516	-514	-306	0
538	528	502	0
-532	-528	-502	0
-532	-538	-502	0
-539	-540	-528	0
-539	-538	-530	0
-539	-528	-530	0
-503	502	504	0
-503	-502	-504	0
538	530	504	0
-532	-530	-504	0
-532	-538	-504	0
-218	375	378	0
-378	377	379	0
-378	-377	-379	0
-375	374	376	0
-375	-374	-376	0
-427	-223	-217	0
-410	-226	-217	0
-411	-412	228	0
-411	-410	226	0
-411	226	228	0
-411	-412	-220	0
-411	-410	-222	0
-411	-220	-222	0
-227	-228	-220	0
-227	-226	-222	0
-227	-220	-222	0
-428	-429	-220	0
-428	-427	-222	0
-428	-220	-222	0
-224	-225	-220	0
-224	-223	-222	0
-224	-220	-222	0
-221	-427	-223	0
-411	-427	-223	0
-227	-427	-223	0
-218	217	219	0
-218	-217	-219	0
-427	-223	-219	0
-410	-228	-219	0
-221	220	222	0
-221	-220	-222	0
-422	-404	-397	0
414	404	397	0
414	422	397	0
-423	-424	406	0
-423	-422	404	0
-423	404	406	0
-398	397	399	0
-398	-397	-399	0
-422	-406	-399	0
414	406	399	0
414	422	399	0
-111	141	144	0
-144	143	145	0
-144	-143	-145	0
-141	140	142	0
-141	-140	-142	0
-287	-288	312	0
-287	-286	310	0
-287	310	312	0
-287	-288	303	0
-287	-286	301	0
-287	301	303	0
-287	-288	297	0
-287	-286	295	0
-287	295	297	0
-311	-312	288	0
-311	-310	286	0
-311	286	288	0
-311	-312	303	0
-311	-310	301	0
-311	301	303	0
-311	-312	297	0
-311	-310	295	0
-311	295	297	0
-302	-303	288	0
-302	-301	286	0
-302	286	288	0
-302	-303	312	0
-302	-301	310	0
-302	310	312	0
-302	-303	297	0
-302	-301	295	0
-302	295	297	0
-296	-297	288	0
-296	-295	286	0
-296	286	288	0
-296	-297	312	0
-296	-295	310	0
-296	310	312	0
-296	-297	303	0
-296	-295	301	0
-296	301	303	0
-111	110	112	0
-111	-110	-112	0
-287	286	288	0
-287	-286	-288	0
-290	335	338	0
-338	337	339	0
-338	-337	-339	0
-335	334	336	0
-335	-334	-336	0
479	475	289	0
-483	-484	457	0
-483	-482	455	0
-483	455	457	0
-480	-481	-475	0
-480	-479	-477	0
-480	-475	-477	0
-480	-481	457	0
-480	-479	455	0
-480	455	457	0
-476	-477	457	0
-476	-475	455	0
-476	455	457	0
-290	289	291	0
-290	-289	-291	0
479	477	291	0
-462	-458	-455	0
-469	-465	-455	0
465	458	455	0
469	458	455	0
465	462	455	0
469	462	455	0
-470	-471	467	0
-470	-469	465	0
-470	465	467	0
-470	-462	-458	0
-466	-462	-458	0
-456	455	457	0
-456	-455	-457	0
-462	-458	-457	0
-469	-467	-457	0
467	458	457	0
469	458	457	0
467	462	457	0
469	462	457	0
858	48	-46	0
859	-48	46	0
-857	859	858	0
-126	-127	115	0
-126	-125	113	0
-126	113	115	0
-126	-127	142	0
-126	-125	140	0
-126	140	142	0
-126	-127	133	0
-126	-125	131	0
-126	131	133	0
-114	-115	127	0
-114	-113	125	0
-114	125	127	0
-114	-115	142	0
-114	-113	140	0
-114	140	142	0
-114	-115	133	0
-114	-113	131	0
-114	131	133	0
-141	-142	127	0
-141	-140	125	0
-141	125	127	0
-141	-142	115	0
-141	-140	113	0
-141	113	115	0
-141	-142	133	0
-141	-140	131	0
-141	131	133	0
-132	-133	127	0
-132	-131	125	0
-132	125	127	0
-132	-133	115	0
-132	-131	113	0
-132	113	115	0
-132	-133	142	0
-132	-131	140	0
-132	140	142	0
-47	46	48	0
-47	-46	-48	0
-314	-315	357	0
-314	-313	355	0
-314	355	357	0
-314	-315	309	0
-314	-313	307	0
-314	307	309	0
-356	-357	315	0
-356	-355	313	0
-356	313	315	0
-356	-357	309	0
-356	-355	307	0
-356	307	309	0
-308	-309	315	0
-308	-307	313	0
-308	313	315	0
-308	-309	357	0
-308	-307	355	0
-308	355	357	0
-114	113	115	0
-114	-113	-115	0
861	54	-52	0
862	-54	52	0
-860	862	861	0
52	179	155	0
-156	-157	-179	0
-156	-155	-181	0
-156	-179	-181	0
-180	-181	-155	0
-180	-179	-157	0
-180	-155	-157	0
-53	52	54	0
-53	-52	-54	0
54	181	157	0
-320	-321	-164	0
-320	-319	-166	0
-320	-164	-166	0
-320	-321	-161	0
-320	-319	-163	0
-320	-161	-163	0
-320	-321	-170	0
-320	-319	-172	0
-320	-170	-172	0
-165	-166	-319	0
-165	-164	-321	0
-165	-319	-321	0
-165	-166	-161	0
-165	-164	-163	0
-165	-161	-163	0
-165	-166	-170	0
-165	-164	-172	0
-165	-170	-172	0
-162	-163	-319	0
-162	-161	-321	0
-162	-319	-321	0
-162	-163	-164	0
-162	-161	-166	0
-162	-164	-166	0
-162	-163	-170	0
-162	-161	-172	0
-162	-170	-172	0
-171	-172	-319	0
-171	-170	-321	0
-171	-319	-321	0
-171	-172	-164	0
-171	-170	-166	0
-171	-164	-166	0
-171	-172	-161	0
-171	-170	-163	0
-171	-161	-163	0
-156	155	157	0
-156	-155	-157	0
-164	-485	-488	0
-489	-490	487	0
-489	-488	485	0
-489	485	487	0
-486	-487	490	0
-486	-485	488	0
-486	488	490	0
-165	164	166	0
-165	-164	-166	0
-166	-487	-490	0
-350	-351	330	0
-350	-349	328	0
-350	328	330	0
-350	-351	339	0
-350	-349	337	0
-350	337	339	0
-329	-330	351	0
-329	-328	349	0
-329	349	351	0
-329	-330	339	0
-329	-328	337	0
-329	337	339	0
-338	-339	351	0
-338	-337	349	0
-338	349	351	0
-338	-339	330	0
-338	-337	328	0
-338	328	330	0
-162	161	163	0
-162	-161	-163	0
-361	-371	-328	0
377	371	328	0
377	361	328	0
-362	-363	373	0
-362	-361	371	0
-362	371	373	0
-372	-373	363	0
-372	-371	361	0
-372	361	363	0
-362	-363	-377	0
-362	-361	-379	0
-362	-377	-379	0
-372	-373	-377	0
-372	-371	-379	0
-372	-377	-379	0
-329	328	330	0
-329	-328	-330	0
-363	-373	-330	0
379	373	330	0
379	363	330	0
-365	-401	-361	0
368	401	361	0
368	365	361	0
-366	-367	403	0
-366	-365	401	0
-366	401	403	0
-362	361	363	0
-362	-361	-363	0
-365	-403	-363	0
368	403	363	0
368	365	363	0
-645	-380	-371	0
-387	-383	-371	0
383	380	371	0
387	380	371	0
383	645	371	0
387	645	371	0
-388	-389	385	0
-388	-387	383	0
-388	383	385	0
-388	-645	-380	0
-384	-645	-380	0
-372	371	373	0
-372	-371	-373	0
-645	-380	-373	0
-387	-385	-373	0
385	380	373	0
387	380	373	0
385	645	373	0
387	645	373	0
-771	-778	-179	0
-776	-777	-768	0
-776	-775	-770	0
-776	-768	-770	0
-772	-773	-768	0
-772	-771	-770	0
-772	-768	-770	0
-779	-780	-768	0
-779	-778	-770	0
-779	-768	-770	0
-776	-771	-778	0
-769	-771	-778	0
-180	179	181	0
-180	-179	-181	0
-771	-778	-181	0
-769	768	770	0
-769	-768	-770	0
-751	-762	-748	0
-758	-755	-748	0
755	762	748	0
758	762	748	0
755	751	748	0
758	751	748	0
-756	-757	760	0
-756	-755	758	0
-756	758	760	0
-763	-764	753	0
-763	-762	751	0
-763	751	753	0
-749	748	750	0
-749	-748	-750	0
-753	-762	-750	0
-760	-755	-750	0
755	762	750	0
760	762	750	0
755	753	750	0
760	753	750	0
-864	843	836	0
-177	554	557	570	0
232	420	413	417	0
559	562	560	564	0
-560	-663	-652	-664	0
390	394	658	572	0
392	805	792	796	0
391	673	754	774	0
187	195	386	197	0
495	547	515	500	0
104	446	468	448	0
103	579	615	581	0
102	703	721	705	0
77	589	641	591	0
-212	473	476	529	0
-93	-68	-96	-81	0
-95	-70	-98	-83	0
-91	-87	-92	-84	0
-91	-87	-90	-86	0
-91	-87	-84	-86	0
440	443	433	90	0
440	443	275	90	0
-441	440	-275	-433	0
-441	442	-277	-435	0
-444	443	-275	-433	0
-444	445	-277	-435	0
440	443	435	92	0
440	443	277	92	0
87	704	731	706	0
96	205	189	208	0
98	207	191	210	0
667	674	655	208	0
667	674	657	210	0
-697	-696	683	565	0
-697	-698	685	567	0
696	806	810	811	0
-243	-239	-244	-229	0
-243	-239	-242	-231	0
-243	-239	-229	-231	0
535	548	519	242	0
535	548	544	242	0
-536	535	-544	-519	0
-536	537	-546	-521	0
-549	548	-544	-519	0
-549	550	-546	-521	0
535	548	521	244	0
535	548	546	244	0
239	421	425	426	0
-63	-74	-64	-71	0
-63	-74	-62	-73	0
-63	-74	-71	-73	0
-256	-255	252	249	0
-256	-257	254	251	0
255	578	599	580	0
74	590	625	592	0
-108	132	135	153	0
677	693	690	158	0
677	789	690	158	0
677	693	797	158	0
677	789	797	158	0
-678	-789	-679	-693	0
-678	-789	-677	-695	0
-678	-789	-693	-695	0
-798	-789	-799	-693	0
-798	-789	-797	-695	0
-798	-789	-693	-695	0
-691	-789	-692	-693	0
-691	-789	-690	-695	0
-691	-789	-693	-695	0
679	695	690	160	0
679	789	690	160	0
679	695	797	160	0
679	789	797	160	0
-794	-807	-795	-785	0
-794	-807	-793	-787	0
-794	-807	-785	-787	0
-168	320	323	341	0
619	629	622	167	0
619	629	626	167	0
-620	-626	-621	-622	0
-620	-626	-619	-624	0
-620	-626	-622	-624	0
-630	-626	-631	-622	0
-630	-626	-629	-624	0
-630	-626	-622	-624	0
621	629	624	169	0
621	629	626	169	0
-744	-642	-745	-638	0
-744	-642	-743	-640	0
-744	-642	-638	-640	0
-636	-642	-637	-638	0
-636	-642	-635	-640	0
-636	-642	-638	-640	0
-604	-600	-605	-596	0
-604	-600	-603	-598	0
-604	-600	-596	-598	0
-739	-616	-740	-612	0
-739	-616	-738	-614	0
-739	-616	-612	-614	0
-610	-616	-611	-612	0
-610	-616	-609	-614	0
-610	-616	-612	-614	0
708	718	711	452	0
708	722	711	452	0
708	718	715	452	0
708	722	715	452	0
-709	-722	-710	-718	0
-709	-722	-708	-720	0
-709	-722	-718	-720	0
-716	-722	-717	-718	0
-716	-722	-715	-720	0
-716	-722	-718	-720	0
-712	-722	-713	-718	0
-712	-722	-711	-720	0
-712	-722	-718	-720	0
710	720	711	454	0
710	722	711	454	0
710	720	715	454	0
710	722	715	454	0
-736	-732	-737	-728	0
-736	-732	-735	-730	0
-736	-732	-728	-730	0
502	512	505	304	0
502	516	505	304	0
502	512	509	304	0
502	516	509	304	0
-503	-516	-504	-512	0
-503	-516	-502	-514	0
-503	-516	-512	-514	0
-510	-516	-511	-512	0
-510	-516	-509	-514	0
-510	-516	-512	-514	0
-506	-516	-507	-512	0
-506	-516	-505	-514	0
-506	-516	-512	-514	0
504	514	505	306	0
504	516	505	306	0
504	514	509	306	0
504	516	509	306	0
-533	538	-534	530	0
-533	538	-532	528	0
-533	538	528	530	0
220	226	223	217	0
220	410	223	217	0
220	226	427	217	0
220	410	427	217	0
-221	-410	-222	-226	0
-221	-410	-220	-228	0
-221	-410	-226	-228	0
-428	-410	-429	-226	0
-428	-410	-427	-228	0
-428	-410	-226	-228	0
-224	-410	-225	-226	0
-224	-410	-223	-228	0
-224	-410	-226	-228	0
222	228	223	219	0
222	410	223	219	0
222	228	427	219	0
222	410	427	219	0
-415	-422	-416	-404	0
-415	-422	-414	-406	0
-415	-422	-404	-406	0
-455	-482	-475	-289	0
-455	-482	-479	-289	0
-456	479	-457	477	0
-456	479	-455	475	0
-456	479	475	477	0
-483	479	-484	477	0
-483	479	-482	475	0
-483	479	475	477	0
-457	-482	-477	-291	0
-457	-482	-479	-291	0
-463	-469	-464	-465	0
-463	-469	-462	-467	0
-463	-469	-465	-467	0
-459	-469	-460	-465	0
-459	-469	-458	-467	0
-459	-469	-465	-467	0
-113	-307	-355	-313	0
-115	-309	-357	-315	0
-161	-337	-328	-349	0
-163	-339	-330	-351	0
-378	377	-361	-371	0
-378	379	-363	-373	0
-369	-365	-370	-401	0
-369	-365	-368	-403	0
-369	-365	-401	-403	0
-646	-387	-647	-383	0
-646	-387	-645	-385	0
-646	-387	-383	-385	0
-381	-387	-382	-383	0
-381	-387	-380	-385	0
-381	-387	-383	-385	0
775	768	778	179	0
775	768	771	179	0
775	770	778	181	0
775	770	771	181	0
-759	-762	-760	-751	0
-759	-762	-758	-753	0
-759	-762	-751	-753	0
-756	-762	-757	-751	0
-756	-762	-755	-753	0
-756	-762	-751	-753	0
-752	-755	-753	-758	0
-752	-755	-751	-760	0
-752	-755	-758	-760	0
-763	-755	-764	-758	0
-763	-755	-762	-760	0
-763	-755	-758	-760	0
281	261	270	106	214	0
281	261	270	106	216	0
-78	-99	-551	-390	-396	0
-80	-101	-551	-390	-396	0
-57	-582	-559	-58	-574	0
99	106	270	261	281	0
-846	623	729	752	786	0
189	192	196	364	198	0
191	194	196	364	198	0
-43	-298	-146	-128	-134	0
-45	-300	-148	-130	-136	0
-117	126	129	296	344	0
-120	299	302	308	489	0
-49	-143	-149	-137	-152	0
-51	-145	-151	-139	-154	0
-137	-343	-374	-346	-352	0
-139	-345	-376	-348	-354	0
-110	-295	-301	-310	-286	0
-112	-297	-303	-312	-288	0
-46	-131	-140	-113	-125	0
-48	-133	-142	-115	-127	0
155	170	161	164	319	0
157	172	163	166	321	0
53	47	50	44	41	835	0
-79	200	203	215	227	839	0
-839	234	264	268	273	840	0
-840	284	384	438	466	841	0
-841	513	525	613	639	842	0
-842	661	688	694	719	759	0
-94	402	405	492	597	846	0
-293	311	314	326	347	486	0
-863	860	857	854	851	864	0
